data;
param nombreJob := 2;
param nombreRessource := 3;
param duree := 1 4 2 5;
param capaciteRessource := 1 4 2 10 3 13;
param besoinRessource : 1 2 3 :=
                    1   3 1 5
                    2   1 6 6;
end;

